174 119 164 75 83 31 132 13 59 134 175 60 71 182 105 19 113 73 194 148 115 188 55 26 137 102 95 154 117 47 179 125 124 84 85 171 161 155 36 70 193 16 49 5 142 2 11 82 9 104 198 35 80 7 103 163 147 141 86 72 46 114 4 77 40 153 63 15 68 69 30 128 160 192 33 53 157 57 180 133 88 166 44 131 149 32 150 181 45 139 78 90 136 167 130 20 58 126 183 87 61 65 76 187 172 190 21 196 107 41 23 100 10 93 109 138 22 184 6 129 29 116 191 50 74 67 165 64 28 176 42 96 197 189 123 91 12 108 62 27 199 52 24 144 178 152 97 51 38 106 140 34 146 173 98 18 118 81 101 43 158 56 112 39 170 1 177 195 110 111 120 127 92 48 169 0 168 151 156 159 37 185 145 99 143 122 3 121 162 14 66 89 79 186 8 25 54 135 17 94